64
1 0 11
2 0 51
2 1 8
3 0 18
3 1 13
3 2 4
4 0 26
4 1 47
4 2 1
4 3 14
5 0 32
5 1 6
5 2 53
5 3 1
5 4 24
6 0 23
6 1 49
6 2 14
6 3 51
6 4 31
6 5 34
7 0 14
7 1 21
7 2 19
7 3 21
7 4 53
7 5 40
7 6 16
8 0 41
8 1 39
8 2 2
8 3 25
8 4 43
8 5 38
8 6 3
8 7 52
9 0 64
9 1 7
9 2 59
9 3 67
9 4 61
9 5 65
9 6 48
9 7 23
9 8 46
10 0 46
10 1 28
10 2 7
10 3 1
10 4 62
10 5 55
10 6 61
10 7 18
10 8 50
10 9 14
11 0 65
11 1 7
11 2 21
11 3 54
11 4 62
11 5 64
11 6 54
11 7 13
11 8 17
11 9 12
11 10 2
12 0 58
12 1 54
12 2 29
12 3 63
12 4 36
12 5 56
12 6 58
12 7 56
12 8 63
12 9 23
12 10 64
12 11 15
13 0 67
13 1 65
13 2 12
13 3 36
13 4 53
13 5 40
13 6 53
13 7 64
13 8 43
13 9 13
13 10 37
13 11 22
13 12 23
14 0 64
14 1 67
14 2 63
14 3 10
14 4 33
14 5 47
14 6 19
14 7 14
14 8 43
14 9 36
14 10 33
14 11 35
14 12 22
14 13 62
15 0 58
15 1 39
15 2 21
15 3 52
15 4 42
15 5 24
15 6 61
15 7 11
15 8 63
15 9 7
15 10 5
15 11 20
15 12 55
15 13 27
15 14 14
16 0 27
16 1 32
16 2 14
16 3 49
16 4 9
16 5 3
16 6 58
16 7 22
16 8 4
16 9 62
16 10 32
16 11 23
16 12 12
16 13 20
16 14 60
16 15 44
17 0 33
17 1 15
17 2 27
17 3 4
17 4 11
17 5 35
17 6 52
17 7 13
17 8 40
17 9 33
17 10 14
17 11 14
17 12 54
17 13 65
17 14 30
17 15 56
17 16 38
18 0 27
18 1 3
18 2 47
18 3 29
18 4 56
18 5 40
18 6 56
18 7 38
18 8 8
18 9 17
18 10 54
18 11 56
18 12 38
18 13 6
18 14 1
18 15 55
18 16 4
18 17 67
19 0 63
19 1 40
19 2 16
19 3 6
19 4 27
19 5 28
19 6 9
19 7 67
19 8 10
19 9 41
19 10 46
19 11 25
19 12 32
19 13 36
19 14 52
19 15 40
19 16 29
19 17 10
19 18 51
20 0 26
20 1 59
20 2 40
20 3 39
20 4 61
20 5 49
20 6 4
20 7 14
20 8 37
20 9 51
20 10 37
20 11 42
20 12 27
20 13 65
20 14 34
20 15 53
20 16 16
20 17 33
20 18 17
20 19 26
21 0 28
21 1 31
21 2 60
21 3 67
21 4 3
21 5 10
21 6 67
21 7 29
21 8 18
21 9 38
21 10 19
21 11 62
21 12 45
21 13 18
21 14 1
21 15 44
21 16 7
21 17 52
21 18 67
21 19 57
21 20 12
22 0 24
22 1 19
22 2 18
22 3 37
22 4 50
22 5 55
22 6 64
22 7 52
22 8 57
22 9 9
22 10 25
22 11 67
22 12 6
22 13 11
22 14 45
22 15 4
22 16 36
22 17 21
22 18 18
22 19 45
22 20 65
22 21 3
23 0 16
23 1 52
23 2 44
23 3 54
23 4 18
23 5 23
23 6 29
23 7 64
23 8 60
23 9 60
23 10 31
23 11 1
23 12 33
23 13 57
23 14 38
23 15 32
23 16 16
23 17 26
23 18 15
23 19 56
23 20 60
23 21 23
23 22 26
24 0 60
24 1 15
24 2 21
24 3 1
24 4 3
24 5 23
24 6 9
24 7 44
24 8 34
24 9 24
24 10 27
24 11 48
24 12 34
24 13 4
24 14 30
24 15 14
24 16 61
24 17 35
24 18 12
24 19 60
24 20 53
24 21 63
24 22 46
24 23 30
25 0 66
25 1 65
25 2 32
25 3 58
25 4 40
25 5 27
25 6 44
25 7 15
25 8 64
25 9 1
25 10 32
25 11 42
25 12 38
25 13 63
25 14 17
25 15 56
25 16 67
25 17 52
25 18 17
25 19 1
25 20 56
25 21 21
25 22 11
25 23 36
25 24 1
26 0 49
26 1 39
26 2 48
26 3 9
26 4 33
26 5 66
26 6 7
26 7 62
26 8 21
26 9 42
26 10 33
26 11 33
26 12 3
26 13 21
26 14 61
26 15 13
26 16 14
26 17 42
26 18 14
26 19 32
26 20 35
26 21 27
26 22 1
26 23 49
26 24 55
26 25 30
27 0 12
27 1 13
27 2 6
27 3 45
27 4 60
27 5 12
27 6 26
27 7 19
27 8 19
27 9 45
27 10 15
27 11 48
27 12 3
27 13 35
27 14 18
27 15 13
27 16 24
27 17 4
27 18 51
27 19 28
27 20 19
27 21 64
27 22 57
27 23 45
27 24 23
27 25 15
27 26 54
28 0 19
28 1 64
28 2 21
28 3 47
28 4 11
28 5 55
28 6 8
28 7 10
28 8 3
28 9 50
28 10 41
28 11 16
28 12 40
28 13 13
28 14 36
28 15 33
28 16 29
28 17 37
28 18 8
28 19 50
28 20 52
28 21 16
28 22 54
28 23 13
28 24 14
28 25 51
28 26 42
28 27 61
29 0 64
29 1 31
29 2 41
29 3 53
29 4 29
29 5 49
29 6 15
29 7 35
29 8 8
29 9 45
29 10 62
29 11 5
29 12 59
29 13 47
29 14 17
29 15 63
29 16 33
29 17 27
29 18 4
29 19 64
29 20 54
29 21 50
29 22 51
29 23 40
29 24 54
29 25 35
29 26 47
29 27 56
29 28 50
30 0 22
30 1 11
30 2 17
30 3 49
30 4 53
30 5 21
30 6 53
30 7 53
30 8 52
30 9 29
30 10 24
30 11 5
30 12 36
30 13 13
30 14 18
30 15 54
30 16 27
30 17 28
30 18 6
30 19 12
30 20 14
30 21 10
30 22 40
30 23 10
30 24 42
30 25 45
30 26 39
30 27 4
30 28 13
30 29 54
31 0 67
31 1 22
31 2 40
31 3 40
31 4 48
31 5 51
31 6 30
31 7 26
31 8 31
31 9 11
31 10 58
31 11 58
31 12 14
31 13 28
31 14 22
31 15 18
31 16 64
31 17 63
31 18 44
31 19 17
31 20 19
31 21 38
31 22 20
31 23 61
31 24 49
31 25 64
31 26 3
31 27 59
31 28 32
31 29 10
31 30 60
32 0 45
32 1 58
32 2 5
32 3 54
32 4 39
32 5 9
32 6 52
32 7 31
32 8 59
32 9 54
32 10 59
32 11 15
32 12 63
32 13 8
32 14 44
32 15 10
32 16 57
32 17 18
32 18 37
32 19 28
32 20 22
32 21 8
32 22 57
32 23 53
32 24 13
32 25 6
32 26 29
32 27 53
32 28 42
32 29 4
32 30 8
32 31 62
33 0 66
33 1 34
33 2 32
33 3 61
33 4 65
33 5 25
33 6 4
33 7 51
33 8 18
33 9 18
33 10 11
33 11 32
33 12 11
33 13 10
33 14 67
33 15 19
33 16 31
33 17 16
33 18 29
33 19 58
33 20 8
33 21 14
33 22 4
33 23 14
33 24 2
33 25 55
33 26 1
33 27 42
33 28 66
33 29 13
33 30 63
33 31 20
33 32 2
34 0 62
34 1 56
34 2 36
34 3 17
34 4 23
34 5 64
34 6 18
34 7 5
34 8 48
34 9 54
34 10 49
34 11 37
34 12 26
34 13 54
34 14 15
34 15 4
34 16 56
34 17 39
34 18 25
34 19 37
34 20 18
34 21 32
34 22 41
34 23 17
34 24 34
34 25 64
34 26 18
34 27 25
34 28 52
34 29 2
34 30 51
34 31 17
34 32 5
34 33 62
35 0 5
35 1 11
35 2 3
35 3 28
35 4 61
35 5 22
35 6 32
35 7 39
35 8 41
35 9 19
35 10 7
35 11 12
35 12 49
35 13 31
35 14 1
35 15 43
35 16 40
35 17 36
35 18 8
35 19 21
35 20 36
35 21 66
35 22 15
35 23 49
35 24 30
35 25 3
35 26 57
35 27 55
35 28 57
35 29 54
35 30 61
35 31 28
35 32 46
35 33 12
35 34 41
36 0 33
36 1 40
36 2 8
36 3 24
36 4 59
36 5 16
36 6 8
36 7 40
36 8 35
36 9 57
36 10 67
36 11 50
36 12 31
36 13 30
36 14 34
36 15 46
36 16 11
36 17 5
36 18 14
36 19 37
36 20 48
36 21 66
36 22 46
36 23 37
36 24 17
36 25 58
36 26 1
36 27 26
36 28 30
36 29 22
36 30 4
36 31 21
36 32 62
36 33 23
36 34 11
36 35 49
37 0 12
37 1 21
37 2 67
37 3 26
37 4 65
37 5 64
37 6 61
37 7 67
37 8 41
37 9 13
37 10 62
37 11 6
37 12 34
37 13 59
37 14 16
37 15 42
37 16 43
37 17 49
37 18 60
37 19 17
37 20 24
37 21 65
37 22 65
37 23 37
37 24 12
37 25 54
37 26 26
37 27 39
37 28 42
37 29 16
37 30 19
37 31 34
37 32 38
37 33 10
37 34 40
37 35 11
37 36 1
38 0 48
38 1 1
38 2 56
38 3 64
38 4 29
38 5 58
38 6 43
38 7 21
38 8 15
38 9 19
38 10 11
38 11 8
38 12 44
38 13 50
38 14 34
38 15 47
38 16 13
38 17 4
38 18 33
38 19 18
38 20 53
38 21 6
38 22 8
38 23 16
38 24 31
38 25 66
38 26 13
38 27 21
38 28 42
38 29 50
38 30 57
38 31 67
38 32 17
38 33 9
38 34 29
38 35 7
38 36 11
38 37 33
39 0 57
39 1 35
39 2 1
39 3 67
39 4 32
39 5 12
39 6 60
39 7 19
39 8 4
39 9 2
39 10 29
39 11 30
39 12 30
39 13 31
39 14 56
39 15 63
39 16 54
39 17 43
39 18 26
39 19 63
39 20 62
39 21 25
39 22 24
39 23 7
39 24 39
39 25 43
39 26 3
39 27 46
39 28 5
39 29 3
39 30 50
39 31 40
39 32 35
39 33 42
39 34 54
39 35 67
39 36 35
39 37 57
39 38 48
40 0 7
40 1 67
40 2 45
40 3 35
40 4 44
40 5 51
40 6 6
40 7 28
40 8 10
40 9 56
40 10 35
40 11 38
40 12 38
40 13 33
40 14 64
40 15 39
40 16 39
40 17 56
40 18 39
40 19 2
40 20 12
40 21 14
40 22 39
40 23 5
40 24 12
40 25 51
40 26 8
40 27 58
40 28 24
40 29 60
40 30 42
40 31 42
40 32 56
40 33 44
40 34 14
40 35 18
40 36 7
40 37 67
40 38 41
40 39 2
41 0 58
41 1 47
41 2 58
41 3 49
41 4 35
41 5 23
41 6 65
41 7 18
41 8 61
41 9 23
41 10 62
41 11 40
41 12 51
41 13 32
41 14 64
41 15 28
41 16 61
41 17 63
41 18 7
41 19 14
41 20 13
41 21 63
41 22 1
41 23 23
41 24 47
41 25 47
41 26 60
41 27 28
41 28 37
41 29 60
41 30 7
41 31 5
41 32 47
41 33 16
41 34 35
41 35 60
41 36 16
41 37 44
41 38 45
41 39 12
41 40 13
42 0 15
42 1 49
42 2 46
42 3 51
42 4 51
42 5 20
42 6 44
42 7 48
42 8 56
42 9 53
42 10 40
42 11 13
42 12 48
42 13 6
42 14 58
42 15 3
42 16 13
42 17 16
42 18 54
42 19 49
42 20 30
42 21 61
42 22 3
42 23 16
42 24 42
42 25 45
42 26 23
42 27 34
42 28 27
42 29 6
42 30 54
42 31 26
42 32 64
42 33 38
42 34 49
42 35 13
42 36 11
42 37 11
42 38 7
42 39 18
42 40 39
42 41 2
43 0 38
43 1 5
43 2 2
43 3 67
43 4 31
43 5 57
43 6 37
43 7 34
43 8 18
43 9 58
43 10 63
43 11 67
43 12 31
43 13 44
43 14 31
43 15 31
43 16 43
43 17 62
43 18 17
43 19 42
43 20 31
43 21 59
43 22 29
43 23 4
43 24 49
43 25 21
43 26 8
43 27 10
43 28 50
43 29 38
43 30 50
43 31 57
43 32 34
43 33 14
43 34 34
43 35 36
43 36 51
43 37 20
43 38 42
43 39 20
43 40 49
43 41 8
43 42 61
44 0 43
44 1 62
44 2 9
44 3 53
44 4 30
44 5 48
44 6 32
44 7 51
44 8 39
44 9 21
44 10 2
44 11 66
44 12 27
44 13 21
44 14 9
44 15 22
44 16 22
44 17 5
44 18 27
44 19 22
44 20 65
44 21 43
44 22 7
44 23 38
44 24 42
44 25 50
44 26 17
44 27 50
44 28 3
44 29 17
44 30 14
44 31 18
44 32 59
44 33 11
44 34 32
44 35 6
44 36 11
44 37 60
44 38 5
44 39 18
44 40 41
44 41 28
44 42 42
44 43 26
45 0 60
45 1 47
45 2 65
45 3 61
45 4 56
45 5 19
45 6 64
45 7 54
45 8 25
45 9 6
45 10 64
45 11 35
45 12 56
45 13 51
45 14 58
45 15 46
45 16 36
45 17 67
45 18 63
45 19 20
45 20 4
45 21 3
45 22 41
45 23 23
45 24 43
45 25 56
45 26 5
45 27 1
45 28 26
45 29 47
45 30 34
45 31 65
45 32 31
45 33 53
45 34 63
45 35 19
45 36 25
45 37 14
45 38 19
45 39 13
45 40 53
45 41 60
45 42 8
45 43 36
45 44 66
46 0 39
46 1 1
46 2 52
46 3 32
46 4 23
46 5 44
46 6 42
46 7 26
46 8 42
46 9 7
46 10 5
46 11 64
46 12 46
46 13 52
46 14 10
46 15 67
46 16 5
46 17 1
46 18 37
46 19 15
46 20 12
46 21 36
46 22 23
46 23 50
46 24 25
46 25 59
46 26 67
46 27 17
46 28 2
46 29 51
46 30 49
46 31 43
46 32 32
46 33 61
46 34 57
46 35 1
46 36 58
46 37 57
46 38 24
46 39 28
46 40 11
46 41 51
46 42 22
46 43 50
46 44 3
46 45 1
47 0 49
47 1 38
47 2 23
47 3 40
47 4 36
47 5 63
47 6 11
47 7 9
47 8 26
47 9 27
47 10 1
47 11 12
47 12 22
47 13 42
47 14 31
47 15 17
47 16 11
47 17 40
47 18 10
47 19 39
47 20 25
47 21 14
47 22 24
47 23 46
47 24 3
47 25 41
47 26 11
47 27 2
47 28 52
47 29 49
47 30 67
47 31 43
47 32 55
47 33 50
47 34 27
47 35 18
47 36 60
47 37 45
47 38 56
47 39 35
47 40 14
47 41 66
47 42 12
47 43 6
47 44 61
47 45 10
47 46 11
48 0 54
48 1 57
48 2 33
48 3 57
48 4 31
48 5 27
48 6 46
48 7 61
48 8 31
48 9 47
48 10 61
48 11 27
48 12 45
48 13 45
48 14 18
48 15 11
48 16 5
48 17 29
48 18 18
48 19 7
48 20 14
48 21 18
48 22 12
48 23 1
48 24 31
48 25 7
48 26 55
48 27 42
48 28 38
48 29 5
48 30 63
48 31 11
48 32 64
48 33 57
48 34 18
48 35 23
48 36 56
48 37 40
48 38 2
48 39 60
48 40 17
48 41 61
48 42 10
48 43 64
48 44 14
48 45 64
48 46 60
48 47 49
49 0 57
49 1 44
49 2 30
49 3 26
49 4 16
49 5 63
49 6 37
49 7 25
49 8 11
49 9 61
49 10 29
49 11 67
49 12 6
49 13 56
49 14 36
49 15 37
49 16 6
49 17 17
49 18 52
49 19 67
49 20 30
49 21 24
49 22 29
49 23 2
49 24 21
49 25 52
49 26 48
49 27 17
49 28 31
49 29 14
49 30 54
49 31 29
49 32 8
49 33 41
49 34 51
49 35 22
49 36 27
49 37 56
49 38 47
49 39 28
49 40 58
49 41 67
49 42 12
49 43 52
49 44 15
49 45 60
49 46 30
49 47 34
49 48 67
50 0 16
50 1 14
50 2 52
50 3 67
50 4 50
50 5 10
50 6 24
50 7 49
50 8 66
50 9 2
50 10 5
50 11 9
50 12 51
50 13 28
50 14 46
50 15 12
50 16 34
50 17 20
50 18 3
50 19 29
50 20 46
50 21 57
50 22 37
50 23 24
50 24 27
50 25 44
50 26 20
50 27 10
50 28 45
50 29 44
50 30 26
50 31 28
50 32 5
50 33 49
50 34 21
50 35 45
50 36 38
50 37 3
50 38 25
50 39 59
50 40 56
50 41 2
50 42 40
50 43 16
50 44 45
50 45 63
50 46 35
50 47 4
50 48 47
50 49 26
51 0 59
51 1 23
51 2 60
51 3 11
51 4 4
51 5 32
51 6 48
51 7 22
51 8 56
51 9 12
51 10 26
51 11 11
51 12 46
51 13 34
51 14 12
51 15 64
51 16 58
51 17 47
51 18 26
51 19 12
51 20 65
51 21 65
51 22 21
51 23 53
51 24 29
51 25 52
51 26 51
51 27 54
51 28 44
51 29 65
51 30 45
51 31 4
51 32 21
51 33 64
51 34 47
51 35 13
51 36 13
51 37 47
51 38 16
51 39 65
51 40 39
51 41 20
51 42 67
51 43 37
51 44 6
51 45 30
51 46 9
51 47 31
51 48 29
51 49 56
51 50 39
52 0 17
52 1 31
52 2 40
52 3 1
52 4 66
52 5 43
52 6 8
52 7 46
52 8 21
52 9 35
52 10 61
52 11 8
52 12 41
52 13 7
52 14 25
52 15 9
52 16 29
52 17 11
52 18 41
52 19 64
52 20 19
52 21 51
52 22 46
52 23 22
52 24 28
52 25 36
52 26 60
52 27 49
52 28 26
52 29 48
52 30 63
52 31 25
52 32 13
52 33 48
52 34 17
52 35 19
52 36 30
52 37 54
52 38 44
52 39 62
52 40 6
52 41 20
52 42 9
52 43 62
52 44 9
52 45 13
52 46 39
52 47 5
52 48 59
52 49 12
52 50 33
52 51 38
53 0 26
53 1 36
53 2 20
53 3 1
53 4 3
53 5 15
53 6 41
53 7 65
53 8 61
53 9 15
53 10 33
53 11 54
53 12 45
53 13 6
53 14 58
53 15 15
53 16 47
53 17 67
53 18 16
53 19 54
53 20 42
53 21 64
53 22 50
53 23 15
53 24 1
53 25 56
53 26 62
53 27 18
53 28 35
53 29 34
53 30 54
53 31 36
53 32 23
53 33 11
53 34 21
53 35 41
53 36 55
53 37 42
53 38 61
53 39 10
53 40 52
53 41 14
53 42 8
53 43 56
53 44 42
53 45 31
53 46 21
53 47 45
53 48 32
53 49 58
53 50 52
53 51 39
53 52 56
54 0 17
54 1 10
54 2 32
54 3 34
54 4 41
54 5 46
54 6 26
54 7 60
54 8 30
54 9 50
54 10 8
54 11 46
54 12 63
54 13 48
54 14 39
54 15 52
54 16 37
54 17 14
54 18 55
54 19 58
54 20 53
54 21 8
54 22 24
54 23 55
54 24 22
54 25 66
54 26 19
54 27 18
54 28 42
54 29 49
54 30 29
54 31 39
54 32 54
54 33 46
54 34 25
54 35 17
54 36 29
54 37 40
54 38 2
54 39 40
54 40 28
54 41 52
54 42 25
54 43 66
54 44 18
54 45 56
54 46 22
54 47 15
54 48 11
54 49 40
54 50 61
54 51 47
54 52 63
54 53 1
55 0 12
55 1 24
55 2 54
55 3 21
55 4 36
55 5 57
55 6 9
55 7 44
55 8 34
55 9 13
55 10 5
55 11 4
55 12 2
55 13 53
55 14 37
55 15 22
55 16 53
55 17 57
55 18 65
55 19 9
55 20 14
55 21 23
55 22 46
55 23 56
55 24 15
55 25 11
55 26 1
55 27 22
55 28 44
55 29 66
55 30 35
55 31 3
55 32 10
55 33 13
55 34 42
55 35 17
55 36 53
55 37 53
55 38 59
55 39 49
55 40 62
55 41 65
55 42 30
55 43 64
55 44 57
55 45 7
55 46 46
55 47 6
55 48 14
55 49 67
55 50 54
55 51 29
55 52 29
55 53 64
55 54 60
56 0 21
56 1 45
56 2 57
56 3 4
56 4 24
56 5 48
56 6 8
56 7 19
56 8 52
56 9 6
56 10 45
56 11 14
56 12 59
56 13 19
56 14 67
56 15 1
56 16 21
56 17 57
56 18 54
56 19 15
56 20 34
56 21 48
56 22 10
56 23 64
56 24 9
56 25 61
56 26 3
56 27 54
56 28 5
56 29 50
56 30 40
56 31 53
56 32 49
56 33 7
56 34 25
56 35 48
56 36 60
56 37 10
56 38 51
56 39 66
56 40 34
56 41 59
56 42 8
56 43 45
56 44 58
56 45 13
56 46 20
56 47 29
56 48 28
56 49 34
56 50 40
56 51 47
56 52 56
56 53 61
56 54 28
56 55 63
57 0 18
57 1 38
57 2 15
57 3 6
57 4 59
57 5 54
57 6 13
57 7 33
57 8 4
57 9 1
57 10 10
57 11 60
57 12 61
57 13 32
57 14 22
57 15 22
57 16 63
57 17 33
57 18 19
57 19 59
57 20 5
57 21 45
57 22 57
57 23 50
57 24 20
57 25 12
57 26 58
57 27 9
57 28 44
57 29 12
57 30 27
57 31 50
57 32 28
57 33 63
57 34 31
57 35 2
57 36 42
57 37 15
57 38 25
57 39 26
57 40 15
57 41 1
57 42 28
57 43 66
57 44 44
57 45 47
57 46 37
57 47 4
57 48 40
57 49 67
57 50 62
57 51 32
57 52 1
57 53 55
57 54 55
57 55 24
57 56 64
58 0 20
58 1 19
58 2 55
58 3 46
58 4 52
58 5 13
58 6 67
58 7 9
58 8 61
58 9 65
58 10 19
58 11 31
58 12 43
58 13 61
58 14 9
58 15 44
58 16 58
58 17 59
58 18 64
58 19 17
58 20 21
58 21 67
58 22 62
58 23 30
58 24 42
58 25 21
58 26 60
58 27 29
58 28 53
58 29 54
58 30 32
58 31 44
58 32 28
58 33 9
58 34 9
58 35 20
58 36 32
58 37 64
58 38 59
58 39 7
58 40 38
58 41 48
58 42 55
58 43 38
58 44 48
58 45 23
58 46 49
58 47 58
58 48 30
58 49 6
58 50 20
58 51 12
58 52 25
58 53 39
58 54 54
58 55 22
58 56 51
58 57 53
59 0 26
59 1 54
59 2 53
59 3 26
59 4 8
59 5 33
59 6 22
59 7 62
59 8 33
59 9 63
59 10 42
59 11 33
59 12 11
59 13 52
59 14 7
59 15 3
59 16 63
59 17 43
59 18 13
59 19 32
59 20 34
59 21 62
59 22 58
59 23 7
59 24 10
59 25 52
59 26 35
59 27 9
59 28 43
59 29 40
59 30 66
59 31 18
59 32 6
59 33 60
59 34 5
59 35 48
59 36 14
59 37 61
59 38 64
59 39 59
59 40 33
59 41 50
59 42 11
59 43 53
59 44 18
59 45 51
59 46 1
59 47 7
59 48 25
59 49 27
59 50 60
59 51 61
59 52 13
59 53 1
59 54 32
59 55 63
59 56 20
59 57 56
59 58 67
60 0 60
60 1 38
60 2 38
60 3 11
60 4 55
60 5 2
60 6 19
60 7 4
60 8 65
60 9 35
60 10 16
60 11 36
60 12 30
60 13 56
60 14 5
60 15 41
60 16 34
60 17 16
60 18 31
60 19 67
60 20 31
60 21 13
60 22 11
60 23 53
60 24 38
60 25 62
60 26 65
60 27 57
60 28 11
60 29 10
60 30 7
60 31 45
60 32 6
60 33 56
60 34 6
60 35 24
60 36 8
60 37 9
60 38 59
60 39 18
60 40 64
60 41 53
60 42 11
60 43 35
60 44 61
60 45 29
60 46 63
60 47 14
60 48 35
60 49 56
60 50 38
60 51 4
60 52 39
60 53 64
60 54 20
60 55 67
60 56 14
60 57 18
60 58 51
60 59 60
61 0 23
61 1 56
61 2 56
61 3 7
61 4 27
61 5 61
61 6 4
61 7 66
61 8 4
61 9 22
61 10 31
61 11 29
61 12 37
61 13 48
61 14 24
61 15 49
61 16 56
61 17 26
61 18 44
61 19 56
61 20 34
61 21 34
61 22 39
61 23 32
61 24 26
61 25 45
61 26 59
61 27 57
61 28 1
61 29 20
61 30 8
61 31 52
61 32 46
61 33 15
61 34 19
61 35 34
61 36 39
61 37 36
61 38 66
61 39 52
61 40 15
61 41 33
61 42 15
61 43 32
61 44 22
61 45 65
61 46 64
61 47 19
61 48 41
61 49 5
61 50 22
61 51 6
61 52 25
61 53 33
61 54 24
61 55 63
61 56 52
61 57 60
61 58 8
61 59 59
61 60 5
62 0 38
62 1 65
62 2 5
62 3 30
62 4 63
62 5 15
62 6 60
62 7 59
62 8 45
62 9 32
62 10 55
62 11 31
62 12 35
62 13 20
62 14 38
62 15 4
62 16 18
62 17 5
62 18 45
62 19 4
62 20 8
62 21 24
62 22 23
62 23 59
62 24 52
62 25 43
62 26 30
62 27 10
62 28 43
62 29 62
62 30 59
62 31 63
62 32 12
62 33 67
62 34 50
62 35 39
62 36 27
62 37 39
62 38 67
62 39 46
62 40 40
62 41 52
62 42 39
62 43 25
62 44 28
62 45 17
62 46 9
62 47 12
62 48 23
62 49 26
62 50 53
62 51 59
62 52 33
62 53 66
62 54 49
62 55 9
62 56 10
62 57 41
62 58 31
62 59 64
62 60 37
62 61 29
63 0 64
63 1 7
63 2 54
63 3 15
63 4 8
63 5 13
63 6 55
63 7 56
63 8 23
63 9 64
63 10 61
63 11 22
63 12 65
63 13 58
63 14 12
63 15 46
63 16 62
63 17 27
63 18 5
63 19 40
63 20 65
63 21 13
63 22 30
63 23 57
63 24 13
63 25 9
63 26 20
63 27 22
63 28 57
63 29 16
63 30 57
63 31 38
63 32 33
63 33 43
63 34 49
63 35 32
63 36 67
63 37 6
63 38 21
63 39 44
63 40 20
63 41 54
63 42 37
63 43 19
63 44 23
63 45 49
63 46 66
63 47 46
63 48 1
63 49 17
63 50 26
63 51 2
63 52 66
63 53 9
63 54 45
63 55 34
63 56 35
63 57 16
63 58 48
63 59 27
63 60 65
63 61 7
63 62 26
